Route #1: 1 5 17 16 30 36 42 37 31 38 43 48 55 63 54 53 62 66 73 80 79 92 97 93 87 81 74 67 68 57 56 49 50 51 44 39 33 32 19 18 26 12 6 7 8 9 20 27 34 45 40 28 21 13 10 2 22 23 11 3 4 14 15 25 24 29 35 41 46 47 61 60 72 78 91 96 77 86 90 95 89 85 76 71 59 52 58 70 65 64 69 75 84 88 83 82 94 98 99 100
Cost 45370
